n_res = 4;
rc = [ 13, 11, 11, 13 ];
n_tasks = 30;
d = [ 9, 3, 2, 4, 10, 2, 7, 6, 9, 2, 5, 6, 5, 9, 9, 8, 5, 3, 2, 2, 9, 8, 3, 6, 5, 8, 8, 4, 3, 3 ];
rr = [| 2, 0, 0, 10, 0, 0, 0, 0, 8, 8, 3, 0, 0, 0, 0, 0, 0, 0, 0, 0, 0, 0, 0, 0, 0, 0, 0, 0, 0, 0
      | 0, 0, 0, 0, 0, 0, 9, 0, 0, 0, 0, 0, 0, 0, 0, 7, 0, 9, 6, 1, 0, 0, 0, 0, 6, 4, 0, 0, 0, 0
      | 0, 2, 0, 0, 1, 4, 0, 4, 0, 0, 0, 5, 3, 6, 10, 0, 0, 0, 0, 0, 0, 0, 1, 0, 0, 0, 0, 0, 0, 2
      | 0, 0, 4, 0, 0, 0, 0, 0, 0, 0, 0, 0, 0, 0, 0, 0, 4, 0, 0, 0, 8, 4, 0, 9, 0, 0, 5, 1, 2, 0 |];
suc = [ { 2 }, 
        { 3 }, 
        { 4 }, 
        { 5 }, 
        { 6 }, 
        { 7 }, 
        { 8 }, 
        { 9 }, 
        { 10 }, 
        { 11 }, 
        { 12 }, 
        { 13 }, 
        { 14 }, 
        { 15 }, 
        { 16 }, 
        { 17 }, 
        { 18 }, 
        { 19 }, 
        { 20 }, 
        { 21 }, 
        { 22 }, 
        { 23 }, 
        { 24 }, 
        { 25 }, 
        { 26 }, 
        { 27 }, 
        { 28 }, 
        { 29 }, 
        { 30 }, 
        {  }]; 
